(set-logic ALL)
(declare-const lookup_parts String)
(declare-const annotations String)
(assert (not (<= (+ (str.len lookup_parts) 1) 1)))
(assert (< 0 (str.len (str.substr lookup_parts 0 (- 1 0)))))
(assert (not (< 1 (str.len (str.substr lookup_parts 0 (- 1 0))))))
(assert (not (str.contains annotations "E")))
(assert (< 0 (str.len (str.substr lookup_parts 0 (- 2 0)))))
(assert (< 1 (str.len (str.substr lookup_parts 0 (- 2 0)))))
(assert (not (< 2 (str.len (str.substr lookup_parts 0 (- 2 0))))))
(assert (not (str.contains annotations "E__G")))
(assert (< 0 (str.len (str.substr lookup_parts 0 (- 3 0)))))
(assert (< 1 (str.len (str.substr lookup_parts 0 (- 3 0)))))
(assert (< 2 (str.len (str.substr lookup_parts 0 (- 3 0)))))
(assert (not (< 3 (str.len (str.substr lookup_parts 0 (- 3 0))))))
(assert (not (str.contains annotations "E__G__D")))
(assert (< 0 (str.len (str.substr lookup_parts 0 (- 4 0)))))
(assert (< 1 (str.len (str.substr lookup_parts 0 (- 4 0)))))
(assert (< 2 (str.len (str.substr lookup_parts 0 (- 4 0)))))
(assert (< 3 (str.len (str.substr lookup_parts 0 (- 4 0)))))
(assert (not (< 4 (str.len (str.substr lookup_parts 0 (- 4 0))))))
(assert (not (str.contains annotations "E__G__D__F")))
(assert (< 0 (str.len (str.substr lookup_parts 0 (- 5 0)))))
(assert (< 1 (str.len (str.substr lookup_parts 0 (- 5 0)))))
(assert (< 2 (str.len (str.substr lookup_parts 0 (- 5 0)))))
(assert (< 3 (str.len (str.substr lookup_parts 0 (- 5 0)))))
(assert (< 4 (str.len (str.substr lookup_parts 0 (- 5 0)))))
(assert (not (< 5 (str.len (str.substr lookup_parts 0 (- 5 0))))))
(assert (not (str.contains annotations "E__G__D__F__A")))
(assert (< 0 (str.len (str.substr lookup_parts 0 (- 6 0)))))
(assert (< 1 (str.len (str.substr lookup_parts 0 (- 6 0)))))
(assert (< 2 (str.len (str.substr lookup_parts 0 (- 6 0)))))
(assert (< 3 (str.len (str.substr lookup_parts 0 (- 6 0)))))
(assert (< 4 (str.len (str.substr lookup_parts 0 (- 6 0)))))
(assert (< 5 (str.len (str.substr lookup_parts 0 (- 6 0)))))
(assert (not (< 6 (str.len (str.substr lookup_parts 0 (- 6 0))))))
(assert (not (str.contains annotations "E__G__D__F__A__B")))
(assert (< 0 (str.len (str.substr lookup_parts 0 (- 7 0)))))
(assert (< 1 (str.len (str.substr lookup_parts 0 (- 7 0)))))
(assert (< 2 (str.len (str.substr lookup_parts 0 (- 7 0)))))
(assert (< 3 (str.len (str.substr lookup_parts 0 (- 7 0)))))
(assert (< 4 (str.len (str.substr lookup_parts 0 (- 7 0)))))
(assert (< 5 (str.len (str.substr lookup_parts 0 (- 7 0)))))
(assert (< 6 (str.len (str.substr lookup_parts 0 (- 7 0)))))
(assert (not (< 7 (str.len (str.substr lookup_parts 0 (- 7 0))))))
(assert (not (str.contains annotations "E__G__D__F__A__B__A")))
(assert (< 0 (str.len lookup_parts)))
(assert (< 1 (str.len lookup_parts)))
(assert (< 2 (str.len lookup_parts)))
(assert (< 3 (str.len lookup_parts)))
(assert (< 4 (str.len lookup_parts)))
(assert (< 5 (str.len lookup_parts)))
(assert (not (< 6 (str.len lookup_parts))))
(check-sat)
(get-value (lookup_parts))
(get-value (annotations))
